n_machines = 3;
n_resources = 4;
n_jobs = 35;
horizon = 18780;
LB = 10380;
n_jobs_per_resource = [7, 5, 5, 18];
duration = [761, 333, 716, 328, 271, 830, 222, 201, 536, 548, 148, 832, 271, 890, 673, 524, 316, 211, 733, 360, 976, 861, 435, 267, 5, 878, 725, 689, 452, 246, 759, 725, 952, 497, 609]